decision_x1=[0,4];
decision_x2=[0,4];
decision_x3=[0,4];
decision_x4=[0,4];
decision_x5=[0,4];
decision_x6=[0,4];
decision_x7=[0,4];
decision_x8=[0,4];
decision_x9=[0,4];
decision_x10=[0,4];
decision_x11=[0,4];
decision_x12=[0,4];
decision_x13=[0,4];
decision_x14=[0,4];
decision_x15=[0,4];
random_y1=[0,4];
random_y2=[0,4];
random_y3=[0,4];
constraint_x3_x1=[
0,1,2.5|
0,2,9.8|
0,3,7.3|
0,4,4.2|
1,0,0.68|
1,2,7.1|
1,3,6.1|
1,4,3.7|
2,0,1.8|
2,1,6.2|
2,3,5.3|
2,4,1.9|
3,0,0.46|
3,1,8.8|
3,2,3.4|
3,4,4.6|
4,0,1.6|
4,1,1.6|
4,2,2.9|
4,3,7.8|
];
constraint_x5_x1=[
0,1,1.5|
0,2,1.4|
0,3,7.6|
0,4,1.7|
1,0,1.6|
1,2,3.1|
1,3,9.7|
1,4,0.27|
2,0,1.9|
2,1,1.2|
2,3,7.3|
2,4,9.2|
3,0,6.8|
3,1,5.6|
3,2,0.77|
3,4,8|
4,0,5.7|
4,1,7.9|
4,2,4.5|
4,3,5.9|
];
constraint_x5_x4=[
0,1,0.6|
0,2,7.6|
0,3,0.96|
0,4,8.9|
1,0,9.7|
1,2,4.8|
1,3,9.8|
1,4,2.3|
2,0,6.8|
2,1,7.7|
2,3,5.2|
2,4,7.3|
3,0,0.55|
3,1,3.9|
3,2,6.6|
3,4,6.4|
4,0,7.6|
4,1,9.4|
4,2,4.4|
4,3,5.9|
];
constraint_x6_x1=[
0,1,4.9|
0,2,7.1|
0,3,5.7|
0,4,2.7|
1,0,6.3|
1,2,7.2|
1,3,1.7|
1,4,4|
2,0,8.9|
2,1,1.2|
2,3,6.2|
2,4,8.7|
3,0,10|
3,1,2.9|
3,2,2.3|
3,4,4.4|
4,0,7.4|
4,1,5.7|
4,2,1.6|
4,3,5.8|
];
constraint_x6_x2=[
0,1,6.7|
0,2,1.1|
0,3,0.56|
0,4,2.5|
1,0,2.7|
1,2,2.4|
1,3,3.9|
1,4,6.3|
2,0,7.5|
2,1,6.5|
2,3,5.7|
2,4,8.6|
3,0,4.6|
3,1,5.1|
3,2,7.5|
3,4,2|
4,0,2.1|
4,1,6.6|
4,2,3.2|
4,3,8.2|
];
constraint_x6_x4=[
0,1,7.6|
0,2,1.1|
0,3,8.6|
0,4,4.5|
1,0,1.3|
1,2,6.2|
1,3,3.5|
1,4,0.2|
2,0,5.9|
2,1,6.6|
2,3,3.7|
2,4,1.3|
3,0,4.1|
3,1,5.8|
3,2,5.8|
3,4,8.3|
4,0,7.2|
4,1,1.4|
4,2,5.6|
4,3,1.4|
];
constraint_x8_x2=[
0,1,5|
0,2,4.4|
0,3,5.5|
0,4,8.1|
1,0,8|
1,2,1.1|
1,3,2.2|
1,4,8.5|
2,0,7.8|
2,1,9.9|
2,3,1.9|
2,4,6.2|
3,0,8.6|
3,1,3.7|
3,2,5.6|
3,4,3.5|
4,0,6.9|
4,1,4.9|
4,2,3.4|
4,3,5.5|
];
constraint_x8_x4=[
0,1,8|
0,2,3.1|
0,3,3.6|
0,4,0.37|
1,0,9.8|
1,2,4.2|
1,3,2.7|
1,4,3.7|
2,0,1.6|
2,1,4.3|
2,3,5.8|
2,4,3.6|
3,0,0.079|
3,1,7.8|
3,2,5.9|
3,4,5.8|
4,0,3.5|
4,1,1.1|
4,2,1.4|
4,3,9.7|
];
constraint_x8_x5=[
0,1,4.3|
0,2,8.5|
0,3,2.7|
0,4,2|
1,0,3.9|
1,2,4.7|
1,3,1.2|
1,4,3.2|
2,0,9.1|
2,1,5.1|
2,3,3.3|
2,4,6.3|
3,0,9.1|
3,1,5.3|
3,2,9.4|
3,4,8.6|
4,0,2.6|
4,1,9.1|
4,2,4.5|
4,3,6|
];
constraint_x8_x7=[
0,1,3.6|
0,2,7.8|
0,3,9.7|
0,4,8.1|
1,0,4.4|
1,2,1.7|
1,3,3.8|
1,4,8.6|
2,0,6.7|
2,1,2|
2,3,3|
2,4,8.1|
3,0,3.2|
3,1,6.5|
3,2,3.6|
3,4,4.9|
4,0,3.7|
4,1,9.4|
4,2,2.5|
4,3,6.7|
];
constraint_x9_x1=[
0,1,8.1|
0,2,5.6|
0,3,3.5|
0,4,0.89|
1,0,8|
1,2,1.7|
1,3,2.7|
1,4,2.1|
2,0,0.69|
2,1,5.8|
2,3,1.6|
2,4,3.9|
3,0,3.8|
3,1,2.8|
3,2,6.2|
3,4,5.7|
4,0,4.7|
4,1,3.5|
4,2,6.6|
4,3,3.7|
];
constraint_x9_x2=[
0,1,8.6|
0,2,4.8|
0,3,6|
0,4,8|
1,0,8|
1,2,0.56|
1,3,5|
1,4,6.6|
2,0,7.4|
2,1,0.39|
2,3,4.7|
2,4,5.8|
3,0,0.35|
3,1,5.9|
3,2,3.9|
3,4,4|
4,0,3.2|
4,1,2.5|
4,2,4.3|
4,3,5.5|
];
constraint_x9_x3=[
0,1,9.2|
0,2,5.2|
0,3,6.2|
0,4,1.8|
1,0,2.3|
1,2,9.8|
1,3,5.2|
1,4,2.9|
2,0,3.4|
2,1,9.7|
2,3,2.4|
2,4,10|
3,0,2.9|
3,1,1.5|
3,2,8.3|
3,4,1.7|
4,0,1.6|
4,1,1.2|
4,2,0.21|
4,3,5.8|
];
constraint_x9_x6=[
0,1,9.8|
0,2,7.4|
0,3,2.7|
0,4,1.2|
1,0,4.3|
1,2,7.9|
1,3,5.4|
1,4,1.9|
2,0,4.5|
2,1,2|
2,3,2.2|
2,4,6.6|
3,0,4.3|
3,1,3.2|
3,2,5.8|
3,4,9|
4,0,3.6|
4,1,6.4|
4,2,5.7|
4,3,1.2|
];
constraint_x9_x8=[
0,1,2.3|
0,2,0.13|
0,3,6.2|
0,4,9.3|
1,0,0.5|
1,2,5|
1,3,6.9|
1,4,3.1|
2,0,4.5|
2,1,6.5|
2,3,2.8|
2,4,3.5|
3,0,2.6|
3,1,0.63|
3,2,9.3|
3,4,6.5|
4,0,7.3|
4,1,9.6|
4,2,2.5|
4,3,6.6|
];
constraint_x10_x1=[
0,1,7.3|
0,2,5.4|
0,3,8.2|
0,4,5.8|
1,0,8|
1,2,7.8|
1,3,1.2|
1,4,1.2|
2,0,4.8|
2,1,3.6|
2,3,9.3|
2,4,6.7|
3,0,4.9|
3,1,8.9|
3,2,9.7|
3,4,4.9|
4,0,4|
4,1,5.3|
4,2,6.3|
4,3,0.071|
];
constraint_x10_x2=[
0,1,5.3|
0,2,9.2|
0,3,3.3|
0,4,9.9|
1,0,7.6|
1,2,4.5|
1,3,6.6|
1,4,6.2|
2,0,4.6|
2,1,4.2|
2,3,5.1|
2,4,2.9|
3,0,6.2|
3,1,2.3|
3,2,4.6|
3,4,1.1|
4,0,6|
4,1,0.3|
4,2,5.8|
4,3,6.8|
];
constraint_x10_x3=[
0,1,6|
0,2,4|
0,3,6.1|
0,4,5|
1,0,6.2|
1,2,9.3|
1,3,0.88|
1,4,8.6|
2,0,6|
2,1,8|
2,3,9.7|
2,4,0.04|
3,0,9.5|
3,1,2.1|
3,2,5|
3,4,4.8|
4,0,6.5|
4,1,8.9|
4,2,3.6|
4,3,5.9|
];
constraint_x10_x4=[
0,1,3.4|
0,2,0.82|
0,3,4.2|
0,4,4|
1,0,3.2|
1,2,6.3|
1,3,2.7|
1,4,0.59|
2,0,3.1|
2,1,1.2|
2,3,1.4|
2,4,3.4|
3,0,5.6|
3,1,2.2|
3,2,7.7|
3,4,7.5|
4,0,6.1|
4,1,1.3|
4,2,2.5|
4,3,4.4|
];
constraint_x10_x6=[
0,1,4.4|
0,2,8.4|
0,3,2.1|
0,4,2.2|
1,0,0.6|
1,2,1.4|
1,3,1.8|
1,4,5.3|
2,0,5.3|
2,1,7.7|
2,3,4.8|
2,4,3|
3,0,9.5|
3,1,7.3|
3,2,8.5|
3,4,5|
4,0,2.6|
4,1,1.5|
4,2,9.2|
4,3,5.7|
];
constraint_x10_x7=[
0,1,4.2|
0,2,4.8|
0,3,2.2|
0,4,8.8|
1,0,4.1|
1,2,9.6|
1,3,1.5|
1,4,7.6|
2,0,5.1|
2,1,7.7|
2,3,0.26|
2,4,3.3|
3,0,0.48|
3,1,5.9|
3,2,9.3|
3,4,3.1|
4,0,1.3|
4,1,0.4|
4,2,3.8|
4,3,4.5|
];
constraint_x10_x9=[
0,1,8.4|
0,2,4.6|
0,3,8.9|
0,4,3|
1,0,4.1|
1,2,0.47|
1,3,6.7|
1,4,1.8|
2,0,0.26|
2,1,4.3|
2,3,8.5|
2,4,2.4|
3,0,8.3|
3,1,2.2|
3,2,8|
3,4,1.1|
4,0,3.6|
4,1,0.17|
4,2,0.71|
4,3,3|
];
constraint_x11_x3=[
0,1,8|
0,2,4.6|
0,3,7.1|
0,4,3.5|
1,0,3.4|
1,2,3.1|
1,3,4.5|
1,4,9.7|
2,0,1.8|
2,1,9.3|
2,3,5.7|
2,4,2.5|
3,0,8.2|
3,1,5.1|
3,2,3.3|
3,4,6.7|
4,0,5.7|
4,1,4.9|
4,2,5.8|
4,3,1.4|
];
constraint_x11_x4=[
0,1,6.1|
0,2,7.6|
0,3,9.6|
0,4,7.9|
1,0,4.5|
1,2,5.6|
1,3,6.7|
1,4,7.8|
2,0,2.2|
2,1,2.7|
2,3,1.1|
2,4,3.9|
3,0,0.57|
3,1,4.7|
3,2,6.7|
3,4,3|
4,0,1.2|
4,1,9.2|
4,2,1.5|
4,3,7.2|
];
constraint_x11_x10=[
0,1,4.9|
0,2,4.6|
0,3,3.7|
0,4,4.8|
1,0,0.33|
1,2,5.4|
1,3,0.86|
1,4,1.5|
2,0,7.2|
2,1,0.52|
2,3,9.1|
2,4,7.8|
3,0,5.6|
3,1,3.2|
3,2,1.7|
3,4,7.7|
4,0,2.2|
4,1,9.5|
4,2,4.6|
4,3,3.7|
];
constraint_x12_x1=[
0,1,9.2|
0,2,8.9|
0,3,9.6|
0,4,7.5|
1,0,9.1|
1,2,4.6|
1,3,4.9|
1,4,0.13|
2,0,0.17|
2,1,8.7|
2,3,7.5|
2,4,4.2|
3,0,3.2|
3,1,6.6|
3,2,0.3|
3,4,6.8|
4,0,9.3|
4,1,6.3|
4,2,5.4|
4,3,4.6|
];
constraint_x12_x2=[
0,1,0.95|
0,2,6.1|
0,3,6.8|
0,4,7.8|
1,0,9.5|
1,2,7.7|
1,3,6.6|
1,4,4.7|
2,0,2|
2,1,4.5|
2,3,6.7|
2,4,1.8|
3,0,3.8|
3,1,0.48|
3,2,5.5|
3,4,5.2|
4,0,1.3|
4,1,4.4|
4,2,9.2|
4,3,6.5|
];
constraint_x12_x3=[
0,1,4.1|
0,2,3.5|
0,3,9.6|
0,4,5.4|
1,0,9.5|
1,2,2|
1,3,8.3|
1,4,3.8|
2,0,8.4|
2,1,5.7|
2,3,2.6|
2,4,7.7|
3,0,8.6|
3,1,5.7|
3,2,9.9|
3,4,7.9|
4,0,2.3|
4,1,9.5|
4,2,1.3|
4,3,4.6|
];
constraint_x12_x5=[
0,1,4.5|
0,2,7.3|
0,3,0.75|
0,4,1.2|
1,0,0.48|
1,2,9.3|
1,3,6.2|
1,4,4.7|
2,0,7.1|
2,1,9.6|
2,3,9.4|
2,4,7.3|
3,0,8.6|
3,1,7.1|
3,2,3.3|
3,4,3.1|
4,0,6.3|
4,1,2.3|
4,2,5.6|
4,3,7|
];
constraint_x12_x9=[
0,1,3.8|
0,2,6.9|
0,3,6.6|
0,4,1|
1,0,9.5|
1,2,6.9|
1,3,2.7|
1,4,0.62|
2,0,6.9|
2,1,0.59|
2,3,8.2|
2,4,7|
3,0,8.7|
3,1,0.44|
3,2,3.3|
3,4,8.9|
4,0,2.4|
4,1,2.3|
4,2,0.41|
4,3,8.8|
];
constraint_x12_x11=[
0,1,8.9|
0,2,9|
0,3,5.4|
0,4,3.6|
1,0,1.1|
1,2,4.2|
1,3,5.5|
1,4,8.1|
2,0,1.3|
2,1,8|
2,3,8.6|
2,4,7.4|
3,0,4.4|
3,1,1.8|
3,2,1.3|
3,4,0.58|
4,0,4.6|
4,1,4.3|
4,2,0.74|
4,3,6.7|
];
constraint_x13_x1=[
0,1,7.3|
0,2,8.3|
0,3,3.9|
0,4,2.1|
1,0,8.1|
1,2,6.6|
1,3,5.6|
1,4,1.9|
2,0,9|
2,1,9.1|
2,3,0.49|
2,4,2.5|
3,0,7.4|
3,1,5.4|
3,2,5.4|
3,4,5.9|
4,0,8|
4,1,10|
4,2,5.7|
4,3,9.3|
];
constraint_x13_x4=[
0,1,7.8|
0,2,7.3|
0,3,4.3|
0,4,6.2|
1,0,8.4|
1,2,1.4|
1,3,2.5|
1,4,8.8|
2,0,8.2|
2,1,8.9|
2,3,10|
2,4,9.2|
3,0,1.1|
3,1,4.8|
3,2,2.7|
3,4,5.3|
4,0,8.6|
4,1,3.4|
4,2,3.6|
4,3,9.9|
];
constraint_x13_x8=[
0,1,1.4|
0,2,8.3|
0,3,0.34|
0,4,9.9|
1,0,1.8|
1,2,3.5|
1,3,9.8|
1,4,2.3|
2,0,1|
2,1,2|
2,3,8.2|
2,4,7.2|
3,0,5|
3,1,1.5|
3,2,8.5|
3,4,5.5|
4,0,0.55|
4,1,6.7|
4,2,8.2|
4,3,4.4|
];
constraint_x13_x11=[
0,1,3.9|
0,2,8.6|
0,3,9.7|
0,4,1.6|
1,0,8.4|
1,2,8.6|
1,3,0.25|
1,4,9.1|
2,0,2.9|
2,1,3.7|
2,3,9.7|
2,4,0.58|
3,0,9.2|
3,1,7.4|
3,2,1.2|
3,4,3.8|
4,0,9.8|
4,1,7.5|
4,2,5.4|
4,3,7.8|
];
constraint_x14_x3=[
0,1,4.9|
0,2,6.2|
0,3,4.6|
0,4,4.6|
1,0,7.8|
1,2,3.6|
1,3,4.4|
1,4,6.2|
2,0,4.5|
2,1,4.9|
2,3,3.7|
2,4,0.25|
3,0,1.4|
3,1,8.4|
3,2,1.6|
3,4,7.9|
4,0,5.6|
4,1,8.3|
4,2,0.89|
4,3,0.39|
];
constraint_x14_x4=[
0,1,6.6|
0,2,9.5|
0,3,7.9|
0,4,0.19|
1,0,1|
1,2,2.8|
1,3,9.1|
1,4,2.1|
2,0,2.6|
2,1,2|
2,3,6.2|
2,4,0.85|
3,0,9.5|
3,1,0.19|
3,2,6.3|
3,4,7.5|
4,0,1.3|
4,1,6.4|
4,2,2.6|
4,3,0.11|
];
constraint_x14_x5=[
0,1,3.4|
0,2,7.5|
0,3,4.4|
0,4,7.3|
1,0,5.9|
1,2,8.3|
1,3,1.9|
1,4,3.2|
2,0,8.8|
2,1,1.6|
2,3,1.1|
2,4,6.3|
3,0,9.9|
3,1,2.4|
3,2,0.6|
3,4,8.5|
4,0,1.7|
4,1,0.75|
4,2,1.5|
4,3,0.2|
];
constraint_x14_x6=[
0,1,3.2|
0,2,0.73|
0,3,2.4|
0,4,2.1|
1,0,9.9|
1,2,2.9|
1,3,6.6|
1,4,8.8|
2,0,4.6|
2,1,2.5|
2,3,0.017|
2,4,8.7|
3,0,3.5|
3,1,4.1|
3,2,6.9|
3,4,5.2|
4,0,8.5|
4,1,8.1|
4,2,2.3|
4,3,4.8|
];
constraint_x14_x8=[
0,1,6.4|
0,2,7.1|
0,3,3.8|
0,4,8|
1,0,4.3|
1,2,9.8|
1,3,3.1|
1,4,7.1|
2,0,2|
2,1,6|
2,3,5.7|
2,4,9.4|
3,0,4.9|
3,1,1.9|
3,2,3.2|
3,4,3.1|
4,0,4.6|
4,1,4.2|
4,2,7.8|
4,3,8.8|
];
constraint_x14_x9=[
0,1,3.9|
0,2,7.1|
0,3,6.7|
0,4,5.1|
1,0,3.8|
1,2,9.2|
1,3,1.7|
1,4,0.51|
2,0,5.1|
2,1,6.7|
2,3,0.036|
2,4,2.7|
3,0,7.1|
3,1,2.5|
3,2,8.3|
3,4,3.2|
4,0,3.1|
4,1,8.4|
4,2,1|
4,3,5.5|
];
constraint_x14_x12=[
0,1,9.6|
0,2,3.1|
0,3,3.5|
0,4,6.4|
1,0,4.4|
1,2,1.8|
1,3,7.5|
1,4,6.5|
2,0,5.9|
2,1,2.1|
2,3,5.6|
2,4,5.1|
3,0,4.7|
3,1,9.2|
3,2,7.8|
3,4,1.3|
4,0,2.6|
4,1,4.1|
4,2,4.4|
4,3,0.57|
];
constraint_x14_x13=[
0,1,3.2|
0,2,2.9|
0,3,8.5|
0,4,9.3|
1,0,1.5|
1,2,8.2|
1,3,4.9|
1,4,9.4|
2,0,3.7|
2,1,5.2|
2,3,7.9|
2,4,3.8|
3,0,1.4|
3,1,0.26|
3,2,3.8|
3,4,7.7|
4,0,7.8|
4,1,9.6|
4,2,8.7|
4,3,8.1|
];
constraint_x15_x1=[
0,1,2.5|
0,2,3.3|
0,3,6.4|
0,4,8.3|
1,0,1.1|
1,2,2.6|
1,3,6.6|
1,4,7.3|
2,0,3.6|
2,1,4.1|
2,3,4.9|
2,4,8.3|
3,0,0.11|
3,1,1.9|
3,2,8.2|
3,4,8.1|
4,0,1.7|
4,1,6.6|
4,2,2.3|
4,3,6.5|
];
constraint_x15_x2=[
0,1,3.1|
0,2,6.5|
0,3,1.2|
0,4,2.3|
1,0,9.6|
1,2,0.18|
1,3,0.82|
1,4,6.4|
2,0,1.9|
2,1,0.76|
2,3,0.29|
2,4,9.6|
3,0,5.9|
3,1,4.1|
3,2,2.2|
3,4,7.3|
4,0,1.6|
4,1,6.6|
4,2,9.1|
4,3,6.3|
];
constraint_x15_x4=[
0,1,0.43|
0,2,1.7|
0,3,3.3|
0,4,6.1|
1,0,0.5|
1,2,7.5|
1,3,8.9|
1,4,0.58|
2,0,8.7|
2,1,5.7|
2,3,0.88|
2,4,7.5|
3,0,8.2|
3,1,8.5|
3,2,9|
3,4,9.1|
4,0,0.79|
4,1,2|
4,2,1.6|
4,3,6.2|
];
constraint_x15_x5=[
0,1,4.1|
0,2,7.8|
0,3,9.5|
0,4,0.43|
1,0,8.5|
1,2,3.5|
1,3,3.8|
1,4,2.3|
2,0,0.54|
2,1,3.4|
2,3,1.9|
2,4,1.2|
3,0,8.7|
3,1,2.5|
3,2,7.8|
3,4,0.44|
4,0,6.1|
4,1,7.5|
4,2,4.9|
4,3,9.1|
];
constraint_x15_x6=[
0,1,9.1|
0,2,0.7|
0,3,2.6|
0,4,9.6|
1,0,3.8|
1,2,1.7|
1,3,1.9|
1,4,8|
2,0,5.5|
2,1,1.6|
2,3,9.3|
2,4,0.44|
3,0,8|
3,1,9.3|
3,2,1.3|
3,4,7.1|
4,0,5.4|
4,1,3.7|
4,2,5.5|
4,3,1.4|
];
constraint_x15_x7=[
0,1,1.7|
0,2,4.6|
0,3,2|
0,4,1.7|
1,0,2|
1,2,0.057|
1,3,1.7|
1,4,5.7|
2,0,5.1|
2,1,8.8|
2,3,8.7|
2,4,9.7|
3,0,6.7|
3,1,1.1|
3,2,2.8|
3,4,9.1|
4,0,5.2|
4,1,7.5|
4,2,4.2|
4,3,7|
];
constraint_x15_x8=[
0,1,9.5|
0,2,7.9|
0,3,1.8|
0,4,4.4|
1,0,7.3|
1,2,2.6|
1,3,9.9|
1,4,8.2|
2,0,1.9|
2,1,6.1|
2,3,3.4|
2,4,8.3|
3,0,9.5|
3,1,0.8|
3,2,10|
3,4,7|
4,0,3.1|
4,1,1.5|
4,2,0.94|
4,3,4.2|
];
constraint_x15_x11=[
0,1,5.8|
0,2,7.7|
0,3,4.5|
0,4,2.3|
1,0,4.7|
1,2,5.9|
1,3,6.5|
1,4,4.7|
2,0,6.7|
2,1,9.6|
2,3,5.3|
2,4,6.5|
3,0,7.3|
3,1,5.7|
3,2,3.2|
3,4,9.8|
4,0,1|
4,1,0.87|
4,2,0.37|
4,3,4.1|
];
constraint_x15_x12=[
0,1,3.6|
0,2,6|
0,3,3.6|
0,4,3.2|
1,0,6.8|
1,2,1.6|
1,3,3.6|
1,4,2.4|
2,0,8.6|
2,1,2.9|
2,3,9.8|
2,4,9.4|
3,0,5.4|
3,1,4.1|
3,2,8.8|
3,4,1.1|
4,0,5.1|
4,1,4.1|
4,2,9.6|
4,3,4.2|
];
constraint_x15_x14=[
0,1,6.3|
0,2,0.14|
0,3,2.7|
0,4,8.8|
1,0,2.2|
1,2,3|
1,3,4.9|
1,4,3.3|
2,0,3.1|
2,1,5.1|
2,3,9.2|
2,4,0.43|
3,0,6.1|
3,1,9.8|
3,2,2.5|
3,4,5.6|
4,0,1.6|
4,1,6.5|
4,2,2.4|
4,3,3.8|
];
constraint_x1_y1=[
0,0,8.3|
0,1,1.3|
0,2,0.44|
0,3,9.8|
0,4,7.2|
1,0,2.9|
1,1,3|
1,2,0.43|
1,3,5.2|
1,4,3.8|
2,0,2.8|
2,1,6.6|
2,2,5.9|
2,3,8.6|
2,4,1.4|
3,0,0.84|
3,1,6.2|
3,2,7.6|
3,3,6.1|
3,4,9.8|
4,0,4.6|
4,1,1.3|
4,2,0.94|
4,3,0.13|
4,4,7.9|
];
constraint_x2_y2=[
0,0,5.5|
0,1,4.2|
0,2,2.5|
0,3,0.59|
0,4,5.4|
1,0,8.8|
1,1,6.3|
1,2,0.18|
1,3,3.6|
1,4,4.8|
2,0,6.6|
2,1,7.1|
2,2,1.8|
2,3,0.21|
2,4,6.2|
3,0,7.9|
3,1,4.8|
3,2,3.6|
3,3,8.7|
3,4,4.2|
4,0,8.8|
4,1,1.9|
4,2,0.87|
4,3,6.8|
4,4,2.4|
];
constraint_x3_y3=[
0,0,6.7|
0,1,7.2|
0,2,9.3|
0,3,5.4|
0,4,5.9|
1,0,3.9|
1,1,0.2|
1,2,4.1|
1,3,7.1|
1,4,7.7|
2,0,4.1|
2,1,1.3|
2,2,1.9|
2,3,2.6|
2,4,8.9|
3,0,6.1|
3,1,3.2|
3,2,7.7|
3,3,1.4|
3,4,2.1|
4,0,0.52|
4,1,6.4|
4,2,6|
4,3,5.6|
4,4,6.2|
];
initial_distribution_y1=[0.1,0.15,0.28,0.092,0.38];
initial_distribution_y2=[0.49,0.11,0.3,0.094,0.016];
initial_distribution_y3=[0.17,0.28,0.11,0.17,0.26];
transition_y1=[
0.22,0.25,0.16,0.24,0.13|
0.18,0.15,0.14,0.29,0.23|
0.094,0.26,0.18,0.23,0.24|
0.31,0.18,0.026,0.46,0.021|
0.33,0.3,0.26,0.033,0.074|
];
transition_y2=[
0.27,0.27,0.13,0.069,0.26|
0.23,0.16,0.15,0.15,0.32|
0.23,0.2,0.073,0.24,0.25|
0.13,0.27,0.17,0.29,0.14|
0.19,0.16,0.26,0.2,0.18|
];
transition_y3=[
0.3,0.11,0.26,0.11,0.23|
0.09,0.22,0.24,0.24,0.21|
0.32,0.35,0.3,0.0075,0.022|
0.13,0.27,0.18,0.19,0.23|
0.24,0.27,0.16,0.15,0.19|
];
